#######################



#######################
Set parameter TimeLimit to value 500
Set parameter SoftMemLimit to value 125
Set parameter MIPFocus to value 2
Set parameter LogFile to value 1202-MIPFocus2-Presolve1-TimeLimit500-k16x240-9.log
Set parameter Presolve to value 1
Set parameter Seed to value 19
Using license file /opt/gurobi/gurobi.lic

Gurobi Optimizer version 12.0.2 build v12.0.2rc0 (linux64 - "Ubuntu 22.04.4 LTS")
Copyright (c) 2025, Gurobi Optimization, LLC

Read MPS format model from file /miplib2010/k16x240.mps.bz2
Reading time = 0.00 seconds
k16x240: 256 rows, 480 columns, 960 nonzeros

Using Gurobi shared library /nfs/shared/static-builds/gurobi1202

CPU model: Intel(R) Xeon(R) E-2388G CPU @ 3.20GHz, instruction set [SSE2|AVX|AVX2|AVX512]
Thread count: 8 physical cores, 16 logical processors, using up to 16 threads

Non-default parameters:
TimeLimit  500
SoftMemLimit  125
MIPFocus  2
Presolve  1
Seed  19

Optimize a model with 256 rows, 480 columns and 960 nonzeros
Model fingerprint: 0x4e80885f
Variable types: 240 continuous, 240 integer (240 binary)
Coefficient statistics:
  Matrix range     [1e+00, 1e+03]
  Objective range  [1e+00, 1e+03]
  Bounds range     [1e+00, 1e+03]
  RHS range        [4e+00, 4e+02]
Found heuristic solution: objective 17517.000000
Presolve time: 0.00s
Presolved: 256 rows, 480 columns, 960 nonzeros
Variable types: 240 continuous, 240 integer (240 binary)

Root relaxation: objective 2.769838e+03, 51 iterations, 0.00 seconds (0.00 work units)

    Nodes    |    Current Node    |     Objective Bounds      |     Work
 Expl Unexpl |  Obj  Depth IntInf | Incumbent    BestBd   Gap | It/Node Time

     0     0 2769.83800    0   14 17517.0000 2769.83800  84.2%     -    0s
H    0     0                    11359.000000 2769.83800  75.6%     -    0s
H    0     0                    11195.000000 2769.83800  75.3%     -    0s
H    0     0                    11088.000000 2769.83800  75.0%     -    0s
H    0     0                    11074.000000 8116.87580  26.7%     -    0s
     0     0 8116.87580    0   26 11074.0000 8116.87580  26.7%     -    0s
H    0     0                    10916.000000 8161.01413  25.2%     -    0s
H    0     0                    10896.000000 8588.30479  21.2%     -    0s
H    0     0                    10806.000000 8588.30479  20.5%     -    0s
     0     0 8588.30479    0   25 10806.0000 8588.30479  20.5%     -    0s
     0     0 8613.92228    0   22 10806.0000 8613.92228  20.3%     -    0s
     0     0 8720.59081    0   23 10806.0000 8720.59081  19.3%     -    0s
H    0     0                    10750.000000 8724.13618  18.8%     -    0s
H    0     0                    10748.000000 8724.13618  18.8%     -    0s
     0     0 8841.67029    0   27 10748.0000 8841.67029  17.7%     -    0s
     0     0 8855.22353    0   40 10748.0000 8855.22353  17.6%     -    0s
     0     0 8861.18726    0   41 10748.0000 8861.18726  17.6%     -    0s
     0     0 9019.35904    0   41 10748.0000 9019.35904  16.1%     -    0s
     0     0 9074.52606    0   36 10748.0000 9074.52606  15.6%     -    0s
     0     0 9081.71705    0   35 10748.0000 9081.71705  15.5%     -    0s
     0     0 9104.55335    0   35 10748.0000 9104.55335  15.3%     -    0s
     0     0 9106.00880    0   36 10748.0000 9106.00880  15.3%     -    0s
     0     0 9131.54973    0   35 10748.0000 9131.54973  15.0%     -    0s
     0     0 9131.63475    0   35 10748.0000 9131.63475  15.0%     -    0s
     0     2 9131.99538    0   35 10748.0000 9131.99538  15.0%     -    0s
H 1260  1047                    10681.000000 9386.42522  12.1%  18.0    0s
H 1807  1386                    10678.000000 9386.42522  12.1%  16.7    0s
H 1868  1372                    10674.000000 9386.42522  12.1%  18.3    1s
 32007 12612     cutoff   38      10674.0000 9995.08607  6.36%  24.4    5s
 77463 19832 10355.1203   38   18 10674.0000 10178.2599  4.64%  25.3   10s
 122372 18692     cutoff   36      10674.0000 10317.9510  3.34%  25.5   15s
 164497  7082     cutoff   35      10674.0000 10481.9202  1.80%  24.7   20s

Cutting planes:
  Gomory: 1
  Lift-and-project: 14
  Cover: 99
  Implied bound: 41
  Dual implied bound: 6
  MIR: 177
  Mixing: 1
  Flow cover: 316
  Flow path: 33
  Inf proof: 3
  Zero half: 7
  Network: 48
  Relax-and-lift: 2

Explored 176213 nodes (4229211 simplex iterations) in 20.78 seconds (28.47 work units)
Thread count was 16 (of 16 available processors)

Solution count 10: 10674 10678 10681 ... 11088

Optimal solution found (tolerance 1.00e-04)
Best objective 1.067400000000e+04, best bound 1.067400000000e+04, gap 0.0000%
